240 5
10 10 10 10 10 

0 0 0 0 0 0 5 2 14 26 38 50 
0 0 0 0 0 0 3 3 4 5 
8 1 0 0 0 0 4 12 10 7 6 
8 3 0 0 0 0 4 11 10 9 8 
2 6 0 0 0 0 3 10 9 8 
4 9 0 0 0 0 2 9 8 
9 4 0 0 0 0 1 8 
3 10 0 0 0 0 1 13 
1 7 0 0 0 0 1 13 
8 3 0 0 0 0 1 13 
2 5 0 0 0 0 1 13 
3 2 0 0 0 0 1 13 
0 0 0 0 0 0 1 62 
0 0 0 0 0 0 6 15 16 21 22 23 24 
4 1 0 0 0 0 2 20 17 
5 3 0 0 0 0 2 19 18 
5 4 0 0 0 0 1 18 
4 6 0 0 0 0 1 25 
10 2 0 0 0 0 1 25 
3 9 0 0 0 0 1 25 
4 4 0 0 0 0 1 25 
1 9 0 0 0 0 1 25 
1 8 0 0 0 0 1 25 
7 4 0 0 0 0 1 25 
0 0 0 0 0 0 1 62 
0 0 0 0 0 0 7 27 29 30 31 34 35 36 
9 0 0 0 0 1 1 28 
3 0 0 0 0 5 2 33 32 
8 0 0 0 0 7 1 32 
7 0 0 0 0 8 1 32 
10 0 0 0 0 5 1 32 
4 0 0 0 0 4 1 37 
7 0 0 0 0 4 1 37 
1 0 0 0 0 7 1 37 
1 0 0 0 0 7 1 37 
5 0 0 0 0 2 1 37 
0 0 0 0 0 0 1 62 
0 0 0 0 0 0 5 39 40 41 47 48 
2 0 1 0 0 0 3 45 43 42 
5 0 8 0 0 0 3 45 44 43 
4 0 3 0 0 0 2 46 43 
1 0 5 0 0 0 1 44 
4 0 4 0 0 0 1 49 
9 0 6 0 0 0 1 49 
6 0 4 0 0 0 1 49 
8 0 4 0 0 0 1 49 
9 0 8 0 0 0 1 49 
4 0 7 0 0 0 1 49 
0 0 0 0 0 0 1 62 
0 0 0 0 0 0 6 51 52 54 58 59 60 
9 0 0 1 0 0 3 57 55 53 
5 0 0 4 0 0 2 56 55 
10 0 0 5 0 0 1 56 
9 0 0 5 0 0 1 55 
1 0 0 5 0 0 1 61 
8 0 0 4 0 0 1 61 
5 0 0 8 0 0 1 61 
4 0 0 6 0 0 1 61 
8 0 0 3 0 0 1 61 
10 0 0 9 0 0 1 61 
0 0 0 0 0 0 1 62 
0 0 0 0 0 0 4 63 95 127 139 
0 0 0 0 0 0 6 64 65 66 68 72 93 
6 0 1 1 0 1 4 75 70 69 67 
7 0 3 4 0 5 6 89 88 87 75 74 71 
7 0 4 4 0 5 6 92 89 86 84 81 70 
7 0 8 5 0 4 4 88 84 81 71 
3 0 7 3 0 2 4 91 89 74 71 
6 0 5 4 0 7 3 85 76 73 
10 0 5 5 0 5 5 88 87 85 80 77 
10 0 4 4 0 6 2 85 73 
9 0 8 5 0 6 3 90 76 75 
10 0 4 7 0 8 3 86 80 77 
7 0 3 10 0 5 1 77 
2 0 5 5 0 5 2 84 79 
4 0 5 4 0 2 2 84 80 
10 0 10 2 0 7 1 78 
1 0 3 4 0 5 1 79 
7 0 5 6 0 5 1 82 
2 0 3 7 0 5 1 83 
3 0 3 4 0 3 1 87 
8 0 6 4 0 5 1 94 
4 0 7 7 0 5 1 94 
7 0 7 7 0 6 1 94 
7 0 6 7 0 6 1 94 
1 0 4 5 0 5 1 94 
4 0 3 2 0 7 1 94 
6 0 4 6 0 7 1 94 
5 0 3 6 0 6 1 94 
5 0 10 6 0 4 1 94 
5 0 5 4 0 6 1 94 
6 0 6 7 0 4 1 94 
5 0 3 5 0 3 1 94 
0 0 0 0 0 0 1 229 
0 0 0 0 0 0 6 96 97 98 100 103 125 
1 1 0 1 0 1 4 112 104 101 99 
8 5 0 3 0 2 6 121 120 119 112 106 102 
10 4 0 8 0 7 6 124 121 117 113 111 104 
3 7 0 9 0 3 4 120 118 113 102 
3 9 0 3 0 4 4 123 121 106 102 
7 2 0 9 0 7 3 116 107 105 
1 3 0 5 0 3 2 116 105 
7 5 0 4 0 8 4 122 112 110 107 
6 2 0 1 0 7 4 120 119 116 108 
6 5 0 4 0 6 3 117 111 108 
10 3 0 4 0 5 1 108 
8 6 0 3 0 4 2 118 111 
4 8 0 6 0 2 1 109 
2 3 0 3 0 6 1 110 
4 5 0 5 0 7 1 114 
1 5 0 8 0 3 1 115 
1 6 0 8 0 5 1 118 
10 7 0 5 0 5 1 119 
4 2 0 5 0 4 1 126 
2 4 0 4 0 4 1 126 
10 4 0 7 0 7 1 126 
5 5 0 5 0 7 1 126 
5 4 0 6 0 4 1 126 
9 2 0 5 0 6 1 126 
10 5 0 7 0 7 1 126 
6 7 0 3 0 10 1 126 
2 10 0 2 0 5 1 126 
5 6 0 4 0 3 1 126 
9 6 0 10 0 3 1 126 
3 9 0 3 0 5 1 126 
0 0 0 0 0 0 1 229 
0 0 0 0 0 0 4 128 129 130 133 
7 0 1 0 0 0 4 137 136 134 132 
4 0 7 0 0 0 3 137 136 131 
6 0 2 0 0 0 1 131 
8 0 4 0 0 0 2 135 134 
3 0 6 0 0 0 1 135 
10 0 7 0 0 0 1 134 
9 0 4 0 0 0 1 138 
1 0 8 0 0 0 1 138 
7 0 5 0 0 0 1 138 
8 0 6 0 0 0 1 138 
0 0 0 0 0 0 2 171 183 
0 0 0 0 0 0 6 140 141 142 143 144 147 
6 1 1 0 0 1 5 157 155 148 146 145 
5 4 2 0 0 2 4 155 154 148 145 
3 5 5 0 0 4 3 157 148 145 
9 2 7 0 0 9 3 157 146 145 
10 8 2 0 0 6 2 157 146 
5 8 10 0 0 4 4 153 152 151 149 
3 1 10 0 0 7 5 159 158 154 153 152 
3 7 5 0 0 5 3 159 158 152 
1 3 4 0 0 6 1 150 
10 5 5 0 0 6 3 159 158 156 
6 6 6 0 0 2 3 159 158 156 
10 6 6 0 0 8 2 159 156 
4 6 4 0 0 4 1 156 
8 6 3 0 0 4 1 156 
8 6 6 0 0 8 1 156 
8 8 2 0 0 6 1 156 
8 3 5 0 0 3 5 169 168 163 161 160 
9 3 4 0 0 9 3 163 162 159 
10 5 4 0 0 5 2 168 160 
4 4 7 0 0 8 4 169 168 167 165 
5 4 3 0 0 4 2 167 164 
3 8 6 0 0 4 1 162 
3 8 1 0 0 2 2 167 166 
1 5 7 0 0 4 2 167 166 
10 4 5 0 0 6 1 165 
10 6 4 0 0 5 1 166 
6 3 7 0 0 5 1 170 
3 4 10 0 0 6 1 170 
4 4 4 0 0 2 1 170 
2 7 5 0 0 5 1 170 
0 0 0 0 0 0 1 229 
0 0 0 0 0 0 4 172 174 175 181 
10 0 0 1 0 0 4 180 179 177 173 
1 0 0 5 0 0 2 178 176 
3 0 0 4 0 0 1 177 
10 0 0 6 0 0 1 176 
2 0 0 3 0 0 1 182 
8 0 0 7 0 0 1 182 
1 0 0 4 0 0 1 182 
3 0 0 8 0 0 1 182 
2 0 0 8 0 0 1 182 
3 0 0 4 0 0 1 182 
0 0 0 0 0 0 2 205 217 
0 0 0 0 0 0 4 184 185 186 187 
3 3 0 0 0 1 5 196 194 192 191 190 
10 6 0 0 0 3 4 194 190 189 188 
4 2 0 0 0 4 3 194 190 188 
5 3 0 0 0 3 3 192 189 188 
9 3 0 0 0 5 4 197 196 195 193 
1 7 0 0 0 4 4 197 196 195 193 
1 5 0 0 0 4 3 197 195 193 
8 5 0 0 0 7 2 195 193 
8 4 0 0 0 3 4 203 199 198 197 
10 9 0 0 0 8 5 203 202 201 199 198 
4 2 0 0 0 7 5 203 202 201 199 198 
4 6 0 0 0 4 3 202 201 198 
6 7 0 0 0 5 3 203 199 198 
1 3 0 0 0 4 2 202 201 
6 10 0 0 0 10 1 200 
3 6 0 0 0 9 1 200 
9 4 0 0 0 7 1 204 
3 5 0 0 0 4 1 204 
3 4 0 0 0 5 1 204 
3 6 0 0 0 3 1 204 
0 0 0 0 0 0 1 229 
0 0 0 0 0 0 6 206 207 208 210 211 215 
5 0 0 1 0 0 2 214 212 
9 0 0 9 0 0 2 213 212 
5 0 0 8 0 0 1 209 
6 0 0 5 0 0 1 212 
1 0 0 6 0 0 1 214 
2 0 0 1 0 0 1 213 
10 0 0 9 0 0 1 216 
8 0 0 2 0 0 1 216 
1 0 0 3 0 0 1 216 
6 0 0 6 0 0 1 216 
0 0 0 0 0 0 1 229 
0 0 0 0 0 0 3 218 219 223 
4 1 0 0 0 0 2 222 220 
3 7 0 0 0 0 2 221 220 
9 7 0 0 0 0 4 227 226 225 224 
9 5 0 0 0 0 4 227 226 225 224 
4 6 0 0 0 0 3 226 225 224 
6 5 0 0 0 0 3 226 225 224 
7 8 0 0 0 0 1 228 
9 3 0 0 0 0 1 228 
6 4 0 0 0 0 1 228 
8 4 0 0 0 0 1 228 
0 0 0 0 0 0 1 229 
0 0 0 0 0 0 4 230 231 232 234 
3 0 0 0 0 1 3 239 235 233 
7 0 0 0 0 5 4 239 237 236 235 
1 0 0 0 0 2 4 239 238 237 236 
4 0 0 0 0 7 2 237 236 
5 0 0 0 0 8 2 237 236 
1 0 0 0 0 5 1 238 
3 0 0 0 0 5 1 240 
5 0 0 0 0 6 1 240 
7 0 0 0 0 6 1 240 
8 0 0 0 0 5 1 240 
0 0 0 0 0 0 0 
